p edge 50 364
e 1 2
e 1 3
e 1 4
e 1 8
e 1 12
e 1 16
e 1 17
e 1 22
e 1 24
e 1 27
e 1 30
e 1 32
e 1 36
e 1 48
e 1 50
e 2 16
e 2 27
e 2 32
e 2 33
e 2 37
e 2 49
e 3 4
e 3 5
e 3 6
e 3 9
e 3 11
e 3 15
e 3 22
e 3 24
e 3 29
e 3 31
e 3 35
e 3 42
e 3 44
e 3 46
e 3 48
e 4 5
e 4 8
e 4 13
e 4 16
e 4 17
e 4 19
e 4 21
e 4 22
e 4 25
e 4 27
e 4 32
e 4 34
e 4 36
e 4 41
e 4 43
e 4 47
e 4 48
e 4 49
e 5 8
e 5 11
e 5 16
e 5 22
e 5 26
e 5 30
e 5 33
e 5 35
e 5 36
e 5 38
e 5 41
e 5 45
e 5 46
e 5 48
e 6 12
e 6 13
e 6 29
e 6 31
e 6 34
e 6 36
e 6 37
e 6 39
e 6 42
e 6 43
e 6 44
e 6 46
e 6 48
e 7 12
e 7 13
e 7 17
e 7 22
e 7 25
e 7 31
e 7 32
e 7 37
e 7 43
e 7 46
e 7 50
e 8 10
e 8 12
e 8 18
e 8 21
e 8 24
e 8 25
e 8 26
e 8 27
e 8 49
e 8 50
e 9 10
e 9 13
e 9 15
e 9 23
e 9 25
e 9 26
e 9 28
e 9 31
e 9 32
e 9 39
e 9 41
e 9 45
e 9 50
e 10 16
e 10 21
e 10 23
e 10 30
e 10 41
e 10 42
e 10 45
e 10 50
e 11 14
e 11 15
e 11 16
e 11 17
e 11 21
e 11 33
e 11 35
e 11 36
e 11 39
e 11 42
e 11 43
e 11 47
e 12 15
e 12 16
e 12 18
e 12 21
e 12 24
e 12 31
e 12 32
e 12 34
e 12 36
e 12 47
e 13 17
e 13 18
e 13 19
e 13 22
e 13 28
e 13 33
e 13 34
e 13 36
e 13 43
e 13 44
e 14 18
e 14 22
e 14 24
e 14 36
e 14 44
e 14 45
e 14 48
e 15 19
e 15 27
e 15 31
e 15 32
e 15 33
e 15 34
e 15 36
e 15 38
e 15 42
e 15 45
e 15 47
e 16 17
e 16 18
e 16 19
e 16 22
e 16 26
e 16 28
e 16 30
e 16 32
e 16 33
e 16 34
e 16 36
e 16 39
e 16 40
e 16 43
e 16 44
e 16 50
e 17 20
e 17 27
e 17 29
e 17 33
e 17 35
e 17 39
e 17 41
e 17 42
e 17 45
e 17 47
e 17 50
e 18 20
e 18 22
e 18 26
e 18 27
e 18 28
e 18 30
e 18 33
e 18 36
e 18 40
e 18 41
e 18 44
e 18 47
e 19 21
e 19 29
e 19 31
e 19 33
e 19 35
e 19 38
e 19 39
e 19 42
e 19 44
e 20 27
e 20 28
e 20 31
e 20 33
e 20 35
e 20 38
e 20 39
e 20 40
e 20 45
e 20 46
e 20 49
e 21 30
e 21 34
e 21 40
e 21 42
e 21 43
e 21 44
e 22 23
e 22 27
e 22 28
e 22 36
e 22 38
e 22 39
e 22 40
e 22 41
e 22 47
e 22 49
e 23 27
e 23 29
e 23 38
e 23 42
e 23 49
e 24 29
e 24 30
e 24 42
e 24 43
e 24 44
e 24 45
e 24 46
e 24 49
e 25 27
e 25 29
e 25 33
e 25 35
e 25 38
e 25 39
e 25 40
e 25 41
e 25 46
e 25 48
e 26 27
e 26 29
e 26 31
e 26 32
e 26 35
e 26 38
e 26 44
e 26 45
e 26 48
e 26 50
e 27 28
e 27 29
e 27 33
e 27 36
e 27 37
e 27 38
e 27 42
e 27 47
e 27 48
e 27 50
e 28 30
e 28 31
e 28 32
e 28 33
e 28 40
e 28 43
e 28 45
e 28 46
e 28 50
e 29 31
e 29 32
e 29 39
e 29 40
e 29 44
e 29 47
e 29 49
e 30 31
e 30 37
e 30 39
e 30 43
e 31 34
e 31 40
e 31 41
e 31 42
e 31 44
e 31 46
e 31 47
e 32 33
e 32 35
e 32 43
e 32 48
e 33 34
e 33 39
e 33 42
e 33 44
e 33 45
e 33 47
e 33 50
e 34 44
e 34 45
e 34 46
e 34 50
e 35 37
e 35 39
e 35 42
e 35 43
e 36 37
e 36 40
e 36 44
e 37 39
e 37 46
e 37 49
e 38 43
e 38 44
e 38 47
e 39 41
e 39 42
e 39 43
e 39 48
e 39 49
e 40 42
e 40 46
e 41 45
e 43 44
e 43 47
e 43 49
e 43 50
e 44 45
e 44 48
e 45 49
e 46 47
e 46 48
e 48 49